Route #1: 96 43 83 18 116 58 54
Route #2: 9
Route #3: 22
Route #4: 84 78 49 99 51 86 77 82 73 21
Route #5: 105 65 135 109 47 134 20 117 39 37
Route #6: 70 59 27 85
Route #7: 12 8
Route #8: 64 128 5 60 92 71 101 97 133 57 44 152 119 98 38
Route #9: 74 143 11 13
Route #10: 127 32 120 138 23 123 153
Route #11: 91 129 55 45 136 115 19 104 53 34
Route #12: 131 147 17 144
Route #13: 69 139 94 56 122 113 3 72
Route #14: 130 50 29 10
Route #15: 35 14
Route #16: 4 52 76 7 125
Route #17: 75 89 42 145 24
Route #18: 15
Route #19: 106 111 67 90 2 40 140
Route #20: 146 114 124 25 80 137 110 61 87 41 48
Route #21: 31 81 62 79 121 108
Route #22: 103 88 150 142 126 16 112 132 66 148
Route #23: 118 46 149 141 95 26
Route #24: 102 63 28 33 68 36 107 151 93 100
Route #25: 30 6
Cost 22901